zaligvinder/models/DRE/data759/7992.txt
((丁-0|丂-1|七-2|丄-3|丅-4|丆-5|万-6|丈-7|三-8|上-9)*.((下-10|丌-11|不-12).(下-13|丌-14|不-15|丁-16|丂-17|七-18|丄-19|丅-20|丆-21|万-22|丈-23|三-24|上-25)*.(与-26.(丁-27|丂-28|七-29|丄-30|丅-31|丆-32|万-33|丈-34|三-35|上-36)*)+.((丌-37|不-38).(丁-39|丂-40|七-41|丄-42|丅-43|丆-44|万-45|丈-46|三-47|上-48)*)*|(与-49.(丁-50|丂-51|七-52|丄-53|丅-54|丆-55|万-56|丈-57|三-58|上-59)*)+.((下-60|丌-61|不-62).(丁-63|丂-64|七-65|丄-66|丅-67|丆-68|万-69|丈-70|三-71|上-72)*)*))?.((丏-73|丐-74).(丁-75|丂-76|七-77|丄-78|丅-79|丆-80|万-81|丈-82|三-83|上-84)*)*.(丑-85.(丌-86|不-87|丁-88|丂-89|七-90|丄-91|丅-92|丆-93|万-94|丈-95|三-96|上-97)*)*.丒-98.(丒-99|专-100|且-101|丁-102|丂-103|七-104|丄-105|丅-106|丆-107|万-108|丈-109|三-110|上-111)*
(丁-0|丂-1|七-2|丄-3|丅-4|丆-5|万-6|丈-7|三-8|上-9|下-10|丌-11|不-12|与-13|丏-14|丐-15|丑-16)*.(丒-17.(丁-18|丂-19|七-20|丄-21|丅-22|丆-23|万-24|丈-25|三-26|上-27|下-28|丌-29|不-30|与-31|丏-32|丐-33|丑-34)*)?.(专-35.(丁-36|丂-37|七-38|丄-39|丅-40|丆-41|万-42|丈-43|三-44|上-45|下-46|丌-47|不-48|与-49|丏-50|丐-51|丑-52)*.(且-53.(丁-54|丂-55|七-56|丄-57|丅-58|丆-59|万-60|丈-61|三-62|上-63|下-64|丌-65|不-66|与-67|丏-68|丐-69|丑-70)*)*)+.(丕-71.(丁-72|丂-73|七-74|丄-75|丅-76|丆-77|万-78|丈-79|三-80|上-81|下-82|丌-83|不-84|与-85|丏-86|丐-87|丑-88)*|世-89.(丁-90|丂-91|七-92|丄-93|丅-94|丆-95|万-96|丈-97|三-98|上-99|下-100|丌-101|不-102|与-103|丏-104|丐-105|丑-106)*)*
